115 
300 
-0.5 0 0 0
0.5 0 0 -17
-7 -7 -35 -72
-7 -5 -35 -86
-7 -3 -35 -127
-7 -1 35 -18
-7 1 35 -19
-7 3 -35 -63
-7 5 -35 -73
-7 7 35 -26
-5 -7 35 -26
-5 -5 25 -23
-5 -3 -25 -138
-5 -1 -25 -122
-5 1 25 -26
-5 3 25 -11
-5 5 -25 -66
-5 7 35 -11
-3 -7 35 -24
-3 -5 25 -15
-3 -3 -15 -66
-3 -1 -15 -106
-3 1 -15 -100
-3 3 15 -19
-3 5 -25 -66
-3 7 35 -15
-1 -7 -35 -96
-1 -5 -25 -78
-1 -3 -15 -66
-1 -1 -5 -134
-1 1 -5 -78
-1 3 -15 -77
-1 5 -25 -130
-1 7 -35 -86
1 -7 35 -28
1 -5 25 -17
1 -3 15 -13
1 -1 5 -22
1 1 -5 -96
1 3 15 -29
1 5 -25 -120
1 7 -35 -76
3 -7 -35 -137
3 -5 25 -17
3 -3 15 -14
3 -1 -15 -96
3 1 15 -10
3 3 -15 -111
3 5 25 -18
3 7 35 -23
5 -7 -35 -99
5 -5 -25 -106
5 -3 -25 -90
5 -1 -25 -85
5 1 25 -22
5 3 25 -12
5 5 -25 -130
5 7 35 -27
7 -7 -35 -133
7 -5 35 -20
7 -3 -35 -120
7 -1 35 -27
7 1 -35 -83
7 3 -35 -87
7 5 -35 -73
7 7 -35 -117
